0 51 52 49 93 37 36 35 34 33 87 38 39 86 79 83 80 1 84 81 85 82 18 17 16 15 4 24 25 26 20 21 22 23 77 73 74 19 75 76 67 72 71 88 91 90 89 70 69 68 99 40 31 32 27 3 28 29 30 43 46 42 11 14 13 12 45 41 48 44 47 66 97 78 2 65 6 7 8 95 94 9 10 5 61 64 63 62 98 92 96 50 54 57 58 55 59 56 60 53 0 